Running for instance ./models/rc107.txt
Generating routes...
Execution time:  16.735755  seconds
Academic license - for non-commercial use only
Warning: constraint name "Cliente esta na rota x1" has a space
Optimize a model with 26 rows, 10000 columns and 59723 nonzeros
Variable types: 0 continuous, 10000 integer (0 binary)
Coefficient statistics:
  Matrix range     [1e+00, 1e+00]
  Objective range  [6e+01, 2e+02]
  Bounds range     [1e+00, 1e+00]
  RHS range        [1e+00, 2e+01]
Found heuristic solution: objective 945.1367736
Presolve removed 1 rows and 5957 columns
Presolve time: 0.05s
Presolved: 25 rows, 4043 columns, 17525 nonzeros
Found heuristic solution: objective 882.5536931
Variable types: 0 continuous, 4043 integer (4043 binary)

Root relaxation: objective 3.938488e+02, 91 iterations, 0.00 seconds

    Nodes    |    Current Node    |     Objective Bounds      |     Work
 Expl Unexpl |  Obj  Depth IntInf | Incumbent    BestBd   Gap | It/Node Time

     0     0  393.84879    0   14  882.55369  393.84879  55.4%     -    0s
H    0     0                     476.4241407  393.84879  17.3%     -    0s
     0     0  393.84879    0   14  476.42414  393.84879  17.3%     -    0s
H    0     0                     469.1069041  393.84879  16.0%     -    0s
H    0     0                     460.7668743  393.84879  14.5%     -    0s
     0     0  393.84879    0   14  460.76687  393.84879  14.5%     -    0s
     0     0  393.84879    0   14  460.76687  393.84879  14.5%     -    0s
     0     2  393.84879    0   14  460.76687  393.84879  14.5%     -    0s
*   10     6               3     458.2991449  398.70464  13.0%   4.5    0s
*  126    32              10     457.3375378  410.38689  10.3%   2.9    0s
*  246     3              15     455.9032648  430.99041  5.46%   2.9    0s
*  248     3              17     449.7022503  430.99041  4.16%   3.0    0s

Explored 274 nodes (949 simplex iterations) in 0.20 seconds
Thread count was 8 (of 8 available processors)

Solution count 9: 449.702 455.903 457.338 ... 882.554

Optimal solution found (tolerance 1.00e-04)
Best objective 4.497022503474e+02, best bound 4.497022503474e+02, gap 0.0000%

Routes:
22 19 18 25 20 24
11 12 14 16 17 15 10 13
23 21 9
2 7 8 5 3 1 6 4

Distance: 449.702250347
Execution time:  17.801496  seconds
